c This is QMaxSAT 2017 based on 14.07
c This is Glucose 3.0
c This is MiniSat 2.2.0
c WARNING: for repeatability, setting FPU to use double precision
c card = mrwto, comp = 0, pmodel = 0, narr = 23, mct = 76, verb = 0
cr firstCPXsol 0 0 0
c top = 189219
c |  Number of variables:    19208                                            |
c |  Number of clauses:      1576096                                          |
c |  Weight of hard clauses: 189219                                           |
c |  Number of soft clauses: 207000                                           |
c |  Number of unit soft clauses: 0                                           |
c |  Maximum Cardinality (by unit): 6746406      (0           )               |
c last restart ## conflicts  :  36 6273 
o 746 | cpuTime 0.442 s
c Sum of weights = 293322
c A number of soft clauses remained = 9000
c MRWTO encoding for Pseudo-Boolean Constraints
c sizeMax=746
c No.0 Divisor=10	generated by pow1
c No.1 Divisor=10	generated by pow1
c No.2 Divisor=10	generated by pow1
c p0= 10	p1= 10	p2= 10	
c number of digits = 4
c linkingVar[0].size = 10, linkingVar[1].size = 10, linkingVar[2].size = 8, linkingVar[3].size = 1, 
c Pseudo-Boolean Constraints: 160605 variables and 1264905 clauses
c Sum of weights = 293322
c A number of soft clauses remained = 9000
c MRWTO encoding for Pseudo-Boolean Constraints
c sizeMax=746
c No.0 Divisor=10	generated by pow1
c No.1 Divisor=10	generated by pow1
c No.2 Divisor=10	generated by pow1
c p0= 10	p1= 10	p2= 10	
c number of digits = 4
c linkingVar[0].size = 10, linkingVar[1].size = 10, linkingVar[2].size = 8, linkingVar[3].size = 1, 
c Pseudo-Boolean Constraints: 160605 variables and 1264905 clauses
c Sum of weights = 293322
c A number of soft clauses remained = 9000
c MRWTO encoding for Pseudo-Boolean Constraints
c sizeMax=746
c No.0 Divisor=10	generated by pow1
c No.1 Divisor=10	generated by pow1
c No.2 Divisor=10	generated by pow1
c p0= 10	p1= 10	p2= 10	
c number of digits = 4
c linkingVar[0].size = 10, linkingVar[1].size = 10, linkingVar[2].size = 8, linkingVar[3].size = 1, 
c Pseudo-Boolean Constraints: 160605 variables and 1264905 clauses
c Sum of weights = 293322
c A number of soft clauses remained = 9000
c MRWTO encoding for Pseudo-Boolean Constraints
c sizeMax=746
c No.0 Divisor=10	generated by pow1
c No.1 Divisor=10	generated by pow1
c No.2 Divisor=10	generated by pow1
c p0= 10	p1= 10	p2= 10	
c number of digits = 4
c linkingVar[0].size = 10, linkingVar[1].size = 10, linkingVar[2].size = 8, linkingVar[3].size = 1, 
c Pseudo-Boolean Constraints: 160605 variables and 1264905 clauses
c Sum of weights = 293322
c A number of soft clauses remained = 9000
c MRWTO encoding for Pseudo-Boolean Constraints
c sizeMax=746
c No.0 Divisor=10	generated by pow1
c No.1 Divisor=10	generated by pow1
c No.2 Divisor=10	generated by pow1
c p0= 10	p1= 10	p2= 10	
c number of digits = 4
c linkingVar[0].size = 10, linkingVar[1].size = 10, linkingVar[2].size = 8, linkingVar[3].size = 1, 
c Pseudo-Boolean Constraints: 160605 variables and 1264905 clauses
c Sum of weights = 293322
c A number of soft clauses remained = 9000
c MRWTO encoding for Pseudo-Boolean Constraints
c sizeMax=746
c No.0 Divisor=10	generated by pow1
c No.1 Divisor=10	generated by pow1
c No.2 Divisor=10	generated by pow1
c p0= 10	p1= 10	p2= 10	
c number of digits = 4
c linkingVar[0].size = 10, linkingVar[1].size = 10, linkingVar[2].size = 8, linkingVar[3].size = 1, 
c Pseudo-Boolean Constraints: 160605 variables and 1264905 clauses
c Sum of weights = 293322
c A number of soft clauses remained = 9000
c MRWTO encoding for Pseudo-Boolean Constraints
c sizeMax=746
c No.0 Divisor=10	generated by pow1
c No.1 Divisor=10	generated by pow1
c No.2 Divisor=10	generated by pow1
c p0= 10	p1= 10	p2= 10	
c number of digits = 4
c linkingVar[0].size = 10, linkingVar[1].size = 10, linkingVar[2].size = 8, linkingVar[3].size = 1, 
c Pseudo-Boolean Constraints: 160605 variables and 1264905 clauses
c Sum of weights = 293322
c A number of soft clauses remained = 9000
c MRWTO encoding for Pseudo-Boolean Constraints
c sizeMax=746
c No.0 Divisor=10	generated by pow1
c No.1 Divisor=10	generated by pow1
c No.2 Divisor=10	generated by pow1
c p0= 10	p1= 10	p2= 10	
c number of digits = 4
c linkingVar[0].size = 10, linkingVar[1].size = 10, linkingVar[2].size = 8, linkingVar[3].size = 1, 
c Pseudo-Boolean Constraints: 160605 variables and 1264905 clauses
c Sum of weights = 293322
c A number of soft clauses remained = 9000
c MRWTO encoding for Pseudo-Boolean Constraints
c sizeMax=746
c No.0 Divisor=10	generated by pow1
c No.1 Divisor=10	generated by pow1
c No.2 Divisor=10	generated by pow1
c p0= 10	p1= 10	p2= 10	
c number of digits = 4
c linkingVar[0].size = 10, linkingVar[1].size = 10, linkingVar[2].size = 8, linkingVar[3].size = 1, 
c Pseudo-Boolean Constraints: 160605 variables and 1264905 clauses
c Sum of weights = 293322
c A number of soft clauses remained = 9000
c MRWTO encoding for Pseudo-Boolean Constraints
c sizeMax=746
c No.0 Divisor=10	generated by pow1
c No.1 Divisor=10	generated by pow1
c No.2 Divisor=10	generated by pow1
c p0= 10	p1= 10	p2= 10	
c number of digits = 4
c linkingVar[0].size = 10, linkingVar[1].size = 10, linkingVar[2].size = 8, linkingVar[3].size = 1, 
c Pseudo-Boolean Constraints: 160605 variables and 1264905 clauses
c Sum of weights = 293322
c A number of soft clauses remained = 9000
c MRWTO encoding for Pseudo-Boolean Constraints
c sizeMax=746
c No.0 Divisor=10	generated by pow1
c No.1 Divisor=10	generated by pow1
c No.2 Divisor=10	generated by pow1
c p0= 10	p1= 10	p2= 10	
c number of digits = 4
c linkingVar[0].size = 10, linkingVar[1].size = 10, linkingVar[2].size = 8, linkingVar[3].size = 1, 
c Pseudo-Boolean Constraints: 160605 variables and 1264905 clauses
c Sum of weights = 293322
c A number of soft clauses remained = 9000
c MRWTO encoding for Pseudo-Boolean Constraints
c sizeMax=746
c No.0 Divisor=10	generated by pow1
c No.1 Divisor=10	generated by pow1
c No.2 Divisor=10	generated by pow1
c p0= 10	p1= 10	p2= 10	
c number of digits = 4
c linkingVar[0].size = 10, linkingVar[1].size = 10, linkingVar[2].size = 8, linkingVar[3].size = 1, 
c Pseudo-Boolean Constraints: 160605 variables and 1264905 clauses
c Sum of weights = 293322
c A number of soft clauses remained = 9000
c MRWTO encoding for Pseudo-Boolean Constraints
c sizeMax=746
c No.0 Divisor=10	generated by pow1
c No.1 Divisor=10	generated by pow1
c No.2 Divisor=10	generated by pow1
c p0= 10	p1= 10	p2= 10	
c number of digits = 4
c linkingVar[0].size = 10, linkingVar[1].size = 10, linkingVar[2].size = 8, linkingVar[3].size = 1, 
c Pseudo-Boolean Constraints: 160605 variables and 1264905 clauses
c Sum of weights = 293322
c A number of soft clauses remained = 9000
c MRWTO encoding for Pseudo-Boolean Constraints
c sizeMax=746
c No.0 Divisor=10	generated by pow1
c No.1 Divisor=10	generated by pow1
c No.2 Divisor=10	generated by pow1
c p0= 10	p1= 10	p2= 10	
c number of digits = 4
c linkingVar[0].size = 10, linkingVar[1].size = 10, linkingVar[2].size = 8, linkingVar[3].size = 1, 
c Pseudo-Boolean Constraints: 160605 variables and 1264905 clauses
c Sum of weights = 293322
c A number of soft clauses remained = 9000
c MRWTO encoding for Pseudo-Boolean Constraints
c sizeMax=746
c No.0 Divisor=10	generated by pow1
c No.1 Divisor=10	generated by pow1
c No.2 Divisor=10	generated by pow1
c p0= 10	p1= 10	p2= 10	
c number of digits = 4
c linkingVar[0].size = 10, linkingVar[1].size = 10, linkingVar[2].size = 8, linkingVar[3].size = 1, 
c Pseudo-Boolean Constraints: 160605 variables and 1264905 clauses
c Sum of weights = 293322
c A number of soft clauses remained = 9000
c MRWTO encoding for Pseudo-Boolean Constraints
c sizeMax=746
c No.0 Divisor=10	generated by pow1
c No.1 Divisor=10	generated by pow1
c No.2 Divisor=10	generated by pow1
c p0= 10	p1= 10	p2= 10	
c number of digits = 4
c linkingVar[0].size = 10, linkingVar[1].size = 10, linkingVar[2].size = 8, linkingVar[3].size = 1, 
c Pseudo-Boolean Constraints: 160605 variables and 1264905 clauses
c Sum of weights = 293322
c A number of soft clauses remained = 9000
c MRWTO encoding for Pseudo-Boolean Constraints
c sizeMax=746
c No.0 Divisor=10	generated by pow1
c No.1 Divisor=10	generated by pow1
c No.2 Divisor=10	generated by pow1
c p0= 10	p1= 10	p2= 10	
c number of digits = 4
c linkingVar[0].size = 10, linkingVar[1].size = 10, linkingVar[2].size = 8, linkingVar[3].size = 1, 
c Pseudo-Boolean Constraints: 160605 variables and 1264905 clauses
c Sum of weights = 293322
c A number of soft clauses remained = 9000
c MRWTO encoding for Pseudo-Boolean Constraints
c sizeMax=746
c No.0 Divisor=10	generated by pow1
c No.1 Divisor=10	generated by pow1
c No.2 Divisor=10	generated by pow1
c p0= 10	p1= 10	p2= 10	
c number of digits = 4
c linkingVar[0].size = 10, linkingVar[1].size = 10, linkingVar[2].size = 8, linkingVar[3].size = 1, 
c Pseudo-Boolean Constraints: 160605 variables and 1264905 clauses
c Sum of weights = 293322
c A number of soft clauses remained = 9000
c MRWTO encoding for Pseudo-Boolean Constraints
c sizeMax=746
c No.0 Divisor=10	generated by pow1
c No.1 Divisor=10	generated by pow1
c No.2 Divisor=10	generated by pow1
c p0= 10	p1= 10	p2= 10	
c number of digits = 4
c linkingVar[0].size = 10, linkingVar[1].size = 10, linkingVar[2].size = 8, linkingVar[3].size = 1, 
c Pseudo-Boolean Constraints: 160605 variables and 1264905 clauses
c Sum of weights = 293322
c A number of soft clauses remained = 9000
c MRWTO encoding for Pseudo-Boolean Constraints
c sizeMax=746
c No.0 Divisor=10	generated by pow1
c No.1 Divisor=10	generated by pow1
c No.2 Divisor=10	generated by pow1
c p0= 10	p1= 10	p2= 10	
c number of digits = 4
c linkingVar[0].size = 10, linkingVar[1].size = 10, linkingVar[2].size = 8, linkingVar[3].size = 1, 
c Pseudo-Boolean Constraints: 160605 variables and 1264905 clauses
c Sum of weights = 293322
c A number of soft clauses remained = 9000
c MRWTO encoding for Pseudo-Boolean Constraints
c sizeMax=746
c No.0 Divisor=10	generated by pow1
c No.1 Divisor=10	generated by pow1
c No.2 Divisor=10	generated by pow1
c p0= 10	p1= 10	p2= 10	
c number of digits = 4
c linkingVar[0].size = 10, linkingVar[1].size = 10, linkingVar[2].size = 8, linkingVar[3].size = 1, 
c Pseudo-Boolean Constraints: 160605 variables and 1264905 clauses
c Sum of weights = 293322
c A number of soft clauses remained = 9000
c MRWTO encoding for Pseudo-Boolean Constraints
c sizeMax=746
c No.0 Divisor=10	generated by pow1
c No.1 Divisor=10	generated by pow1
c No.2 Divisor=10	generated by pow1
c p0= 10	p1= 10	p2= 10	
c number of digits = 4
c linkingVar[0].size = 10, linkingVar[1].size = 10, linkingVar[2].size = 8, linkingVar[3].size = 1, 
c Pseudo-Boolean Constraints: 160605 variables and 1264905 clauses
c Sum of weights = 293322
c A number of soft clauses remained = 9000
c MRWTO encoding for Pseudo-Boolean Constraints
c sizeMax=746
c No.0 Divisor=10	generated by pow1
c No.1 Divisor=10	generated by pow1
c No.2 Divisor=10	generated by pow1
c p0= 10	p1= 10	p2= 10	
c number of digits = 4
c linkingVar[0].size = 10, linkingVar[1].size = 10, linkingVar[2].size = 8, linkingVar[3].size = 1, 
c Pseudo-Boolean Constraints: 160605 variables and 1264905 clauses
c last restart ## conflicts  :  837 95805 
o 451 | cpuTime 23.5139 s
c last restart ## conflicts  :  227 69429 
o 372 | cpuTime 31.3193 s
c last restart ## conflicts  :  131 43612 
o 329 | cpuTime 43.291 s
c last restart ## conflicts  :  423 72342 
o 286 | cpuTime 99.0047 s
c last restart ## conflicts  :  445 50774 
o 271 | cpuTime 191.611 s
c last restart ## conflicts  :  353 24991 
o 251 | cpuTime 290.678 s
c last restart ## conflicts  :  439 103376 
o 221 | cpuTime 543.623 s
c last restart ## conflicts  :  1042 68507 
o 219 | cpuTime 1649.29 s
c last restart ## conflicts  :  275 57139 
o 209 | cpuTime 1911.65 s
c last restart ## conflicts  :  290 27042 
o 206 | cpuTime 2529.2 s
c last restart ## conflicts  :  354 28514 
o 186 | cpuTime 2945.08 s
s UNKNOWN
c Search is stopped by a limit (maybe time-limit)
cr positiVarArr: [ | 40(1->18) | 122(1->2) | 242(1->24) | 326(1->10) | 481(1->67) | 568(1->56) | 646(1->36) | 781(1->73) | 861(1->55) | 956(1->52) | 1005(1->3) | 1122(1->22) | 1261(1->63) | 1341(1->45) | 1425(1->31) | 1562(1->70) | 1632(1->42) | 1720(1->32) | 1827(1->41) | 1921(1->37) | 2042(1->60) | 2095(1->15) | 2204(1->26) | 2269(2->1) | 2364(3->1) | 2547(4->75) | 2599(5->29) | 2736(6->68) | 2777(7->11) | 2877(8->13) | 3002(9->40) | 3126(10->66) | 3217(11->59) | 3320(12->64) | 3355(13->1) | 3475(14->23) | 3533(15->1) | 3634(16->1) | 3758(17->12) | 3863(18->19) | 3958(19->16) | 4088(20->48) | 4181(21->43) | 4305(22->69) | 4314(23->1) | 4481(24->49) | 4592(25->62) | 4633(26->5) | 4733(27->7) | 4816(28->1) | 4966(29->44) | 5094(30->74) | 5132(31->14) | 5197(32->1) | 5320(33->6) | 5458(34->46) | 5563(35->53) | 5628(36->20) | 5694(37->1) | 5862(38->58) | 5940(39->38) | 6039(40->39) | 6093(41->1) | 6246(42->50) | 6288(43->1) | 6443(44->51) | 6520(45->30) | 6623(46->35) | 6707(47->21) | 6831(48->47) | 6861(49->1) | 6976(50->1) | 7075(51->1) | 7233(52->57) | 7346(53->72) | 7363(54->1) | 7487(55->17) | 7633(56->65) | 7720(57->54) | 7789(58->25) | 7844(59->1) | 8021(60->61) | 8042(61->1) | 8156(62->1) | 8263(63->9) | 8339(64->1) | 8458(65->8) | 8537(66->1) | 8674(67->28) | 8820(68->76) | 8913(69->71) | 8967(70->27) | 9036(71->1) | 9135(72->1) | 9267(73->33) | 9317(74->1) | 9464(75->34) | 9532(76->4) | ]
cr the 1-th chain: [ 1->18->19->16->1 ] (#non-depot=3) {#cumul.=4}
cr the 2-th chain: [ 1->2->1 ] (#non-depot=1) {#cumul.=5}
cr the 3-th chain: [ 1->24->49->1 ] (#non-depot=2) {#cumul.=7}
cr the 4-th chain: [ 1->10->66->1 ] (#non-depot=2) {#cumul.=9}
cr the 5-th chain: [ 1->67->28->1 ] (#non-depot=2) {#cumul.=11}
cr the 6-th chain: [ 1->56->65->8->13->1 ] (#non-depot=4) {#cumul.=15}
cr the 7-th chain: [ 1->36->20->48->47->21->43->1 ] (#non-depot=6) {#cumul.=21}
cr the 8-th chain: [ 1->73->33->6->68->76->4->75->34->46->35->53->72->1 ] (#non-depot=12) {#cumul.=33}
cr the 9-th chain: [ 1->55->17->12->64->1 ] (#non-depot=4) {#cumul.=37}
cr the 10-th chain: [ 1->52->57->54->1 ] (#non-depot=3) {#cumul.=40}
cr the 11-th chain: [ 1->3->1 ] (#non-depot=1) {#cumul.=41}
cr the 12-th chain: [ 1->22->69->71->1 ] (#non-depot=3) {#cumul.=44}
cr the 13-th chain: [ 1->63->9->40->39->38->58->25->62->1 ] (#non-depot=8) {#cumul.=52}
cr the 14-th chain: [ 1->45->30->74->1 ] (#non-depot=3) {#cumul.=55}
cr the 15-th chain: [ 1->31->14->23->1 ] (#non-depot=3) {#cumul.=58}
cr the 16-th chain: [ 1->70->27->7->11->59->1 ] (#non-depot=5) {#cumul.=63}
cr the 17-th chain: [ 1->42->50->1 ] (#non-depot=2) {#cumul.=65}
cr the 18-th chain: [ 1->32->1 ] (#non-depot=1) {#cumul.=66}
cr the 19-th chain: [ 1->41->1 ] (#non-depot=1) {#cumul.=67}
cr the 20-th chain: [ 1->37->1 ] (#non-depot=1) {#cumul.=68}
cr the 21-th chain: [ 1->60->61->1 ] (#non-depot=2) {#cumul.=70}
cr the 22-th chain: [ 1->15->1 ] (#non-depot=1) {#cumul.=71}
cr the 23-th chain: [ 1->26->5->29->44->51->1 ] (#non-depot=5) {#cumul.=76}
c Latest Answer = 0 by 12 loops
c restarts              : 18401
c conflicts             : 2663401        (741 /sec)
c decisions             : 156155932      (0.00 % random) (43419 /sec)
c propagations          : 34263279847    (9526898 /sec)
c conflict literals     : 445870364      (29.10 % deleted)
c Memory used           : 3854.00 MB
c CPU time              : 3596.48 s
